language Essence 1.3

letting pos be
        function((1, 1) --> 1, (1, 2) --> 3, (1, 3) --> 5, (2, 1) --> 4, (2, 2) --> 7, (2, 3) --> 10, (3, 1) --> 19,
                 (3, 2) --> 23, (3, 3) --> 27, (4, 1) --> 6, (4, 2) --> 11, (4, 3) --> 16, (5, 1) --> 14, (5, 2) --> 20,
                 (5, 3) --> 26, (6, 1) --> 15, (6, 2) --> 22, (6, 3) --> 29, (7, 1) --> 9, (7, 2) --> 17, (7, 3) --> 25,
                 (8, 1) --> 12, (8, 2) --> 21, (8, 3) --> 30, (9, 1) --> 8, (9, 2) --> 18, (9, 3) --> 28, (10, 1) --> 2,
                 (10, 2) --> 13, (10, 3) --> 24)
